GLPSOL--GLPK LP/MIP Solver 5.0
Parameter(s) specified in the command line:
 --lp ../modeles/5_324.lp --log 5_324.log
Reading problem data from '../modeles/5_324.lp'...
1641 rows, 3250 columns, 11355 non-zeros
1620 integer variables, all of which are binary
4902 lines were read
GLPK Integer Optimizer 5.0
1641 rows, 3250 columns, 11355 non-zeros
1620 integer variables, all of which are binary
Preprocessing...
1610 constraint coefficient(s) were reduced
1641 rows, 3245 columns, 11350 non-zeros
1620 integer variables, all of which are binary
Scaling...
 A: min|aij| =  1.524e-04  max|aij| =  4.000e+00  ratio =  2.624e+04
GM: min|aij| =  7.857e-02  max|aij| =  1.273e+01  ratio =  1.620e+02
EQ: min|aij| =  6.173e-03  max|aij| =  1.000e+00  ratio =  1.620e+02
2N: min|aij| =  4.877e-03  max|aij| =  1.763e+00  ratio =  3.615e+02
Constructing initial basis...
Size of triangular part is 1641
Solving LP relaxation...
GLPK Simplex Optimizer 5.0
1641 rows, 3245 columns, 11350 non-zeros
      0: obj =   1.000000000e+01 inf =   2.450e+01 (11)
    104: obj =   4.111236019e-01 inf =   0.000e+00 (0)
*   363: obj =  -2.235920852e+00 inf =   2.287e-15 (0)
OPTIMAL LP SOLUTION FOUND
Integer optimization begins...
Long-step dual simplex will be used
+   363: mip =     not found yet >=              -inf        (1; 0)
+   735: >>>>>  -2.235920852e+00 >=  -2.235920852e+00 < 0.1% (369; 0)
+   735: mip =  -2.235920852e+00 >=     tree is empty   0.0% (0; 737)
INTEGER OPTIMAL SOLUTION FOUND
Time used:   0.9 secs
Memory used: 4.8 Mb (5067507 bytes)
